30
15
0 16 17 18 19 21 22 25 26
1 16 17 18 19 21 22 23 27 28
2 16 17 18 19 21 22 23 25 26 28
3 17 19 21 22 25 26 28
4 16 17 18 19 22 24 25 26 28
5 15 16 17 18 19 21 28 29
6 15 17 21 22 28
7 16 17 19 25 27
8 18 21 29
9 16 17 20 22 25 26 27 28 29
10 15 18 22
11 16 17 19 22 23
12 21 28
13 28
14
